(set-logic ALL)
(set-option :produce-models true)
(declare-sort BoundSet 0)
(declare-sort UnboundSet 0)
(set-option :finite-model-find true)
(declare-fun IsAddedTo (BoundSet BoundSet) Bool)
(declare-fun IsConcealedBy (BoundSet BoundSet) Bool)
(declare-fun IsFirstCoat (BoundSet) Bool)
(assert (not (=> (exists ((c BoundSet)) (exists ((a BoundSet)) (exists ((b BoundSet)) (and (IsAddedTo a b) (IsConcealedBy a c))))) (exists ((e BoundSet)) (exists ((d BoundSet)) (exists ((f BoundSet)) (and (IsFirstCoat d) (IsConcealedBy e f))))))))
(check-sat)
(get-model)